<number of tasks>
20

<cycle time>
1000

<order strength>
0,516


<task times>
1 339
2 427
3 446
4 526
5 718
6 387
7 658
8 496
9 333
10 518
11 523
12 219
13 489
14 497
15 641
16 557
17 492
18 508
19 452
20 569

<precedence relations>
1,4
1,5
1,7
2,19
3,5
3,6
4,9
4,10
4,11
5,8
6,8
7,10
7,15
7,16
8,9
8,10
8,11
8,12
8,13
9,14
9,19
11,16
12,15
12,18
14,17
15,19
16,18
16,20

<end>
